WARNING: for repeatability, setting FPU to use double precision
============================[ Problem Statistics ]=============================
|                                                                             |
|  Number of variables:           281                                         |
|  Number of clauses:            1129                                         |
|  Parse time:                   0.00 s                                       |
|                                                                             |
============================[ Search Statistics ]==============================
| Conflicts |          ORIGINAL         |          LEARNT          | Progress |
|           |    Vars  Clauses Literals |    Limit  Clauses Lit/Cl |          |
===============================================================================
|       100 |     281     1129     3251 |      413      100      8 |  0.001 % |
|       250 |     272     1117     3219 |      455      193      7 |  3.207 % |
===============================================================================
restarts              : 3
conflicts             : 275            (inf /sec)
decisions             : 343            (0.00 % random) (inf /sec)
propagations          : 13100          (inf /sec)
conflict literals     : 1762           (25.34 % deleted)
Memory used           : 19.00 MB
CPU time              : 0 s

UNSATISFIABLE
